language ESSENCE' 1.0

letting jobs = 102
letting horizon = 804
letting resourcesRenew = 2
letting resourcesNonrenew = 2
letting resourceLimits = [38, 36, 289, 253]
letting successors = [[2, 3, 4, 5, 6, 7, 8, 9, 10, 11, 13, 14, 16, 18, 19, 20, 21, 24, 25, 30], [49, 48, 33, 22, 12], [58, 46, 40, 32, 31, 23, 17], [67, 58, 57, 51, 44, 35, 33, 29, 17], [54, 35, 32, 27, 15], [67, 63, 56, 54, 53, 51, 46, 45, 42, 40, 39, 31, 28], [56, 51, 50, 48, 47, 45, 41, 32, 27, 26], [59, 58, 57, 56, 51, 50, 49, 48, 45, 43, 41, 40, 39, 38, 36, 32], [67, 63, 56, 54, 51, 45, 42, 38, 32, 31, 28], [67, 57, 51, 42, 32, 17], [74, 56, 54, 50, 48, 45, 41, 32, 27], [67, 59, 58, 57, 53, 51, 47, 46, 45, 40, 39, 38, 28], [74, 73, 67, 64, 59, 58, 56, 54, 51, 49, 48, 46, 41, 39, 38, 36], [59, 58, 56, 51, 49, 48, 46, 41, 39, 37, 32], [67, 53, 51, 46, 45, 39, 31, 28], [84, 59, 58, 57, 56, 52, 48, 46, 45, 42, 41, 39, 37], [63, 59, 54, 53, 49, 48, 45, 39, 38, 28], [72, 67, 59, 54, 53, 51, 49, 46, 45, 28], [74, 67, 58, 55, 53, 51, 49, 45, 39, 31], [73, 67, 59, 58, 56, 54, 53, 52, 51, 49, 48, 46, 45, 39], [74, 73, 67, 59, 58, 52, 50, 49, 48, 44, 41, 34], [74, 67, 65, 63, 57, 54, 51, 50, 42, 41, 32], [74, 67, 56, 53, 52, 51, 49, 47, 45, 41, 39], [67, 54, 51, 48, 45, 28], [74, 73, 68, 67, 66, 65, 60, 59, 58, 55, 53, 52, 51, 48, 42], [84, 80, 77, 76, 74, 72, 68, 67, 66, 64, 61, 60, 59, 58, 55, 54, 53, 52], [68, 67, 66, 59, 58, 57, 55, 49, 42, 39], [84, 76, 74, 73, 65, 64, 61, 60, 52, 50, 41], [74, 72, 65, 60, 54, 47, 41], [74, 73, 72, 67, 59, 45, 41], [83, 80, 77, 76, 68, 65, 59, 57, 52, 48, 47], [84, 80, 77, 76, 73, 72, 68, 66, 64, 61, 60, 53, 52], [83, 82, 80, 73, 72, 71, 64, 60, 59, 56, 55, 50], [84, 77, 72, 71, 65, 62, 45], [80, 77, 75, 74, 73, 72, 71, 64, 62, 61, 50], [83, 80, 79, 77, 72, 68, 65, 60, 53, 52], [82, 80, 76, 74, 72, 69, 67, 64, 61, 54, 53], [98, 83, 80, 79, 77, 75, 72, 71, 70, 69, 65, 62], [98, 83, 82, 79, 76, 75, 72, 71, 65, 62, 60], [82, 75, 74, 71, 69, 68, 66, 65, 64, 62], [81, 80, 77, 71, 69, 68, 66, 62, 55], [80, 78, 77, 76, 70, 69, 64, 62, 61], [101, 99, 98, 80, 78, 77, 75, 72, 70, 69, 67, 64], [98, 83, 82, 80, 76, 75, 71, 69, 63, 62], [101, 100, 83, 80, 76, 75, 68, 64, 60], [98, 92, 82, 81, 79, 78, 75, 69, 66, 62], [84, 78, 75, 73, 69, 64, 62], [82, 81, 75, 72, 71, 70, 69, 62], [98, 81, 77, 76, 70, 69, 62], [100, 99, 96, 93, 92, 89, 81, 70, 69, 68], [100, 97, 94, 92, 84, 78, 76, 61], [99, 98, 94, 93, 91, 87, 82, 81, 75, 71, 69], [95, 92, 89, 85, 81, 62], [98, 97, 95, 93, 92, 91, 90, 89, 88, 83, 78, 70], [99, 98, 97, 93, 92, 91, 87, 86, 85, 79, 75], [99, 96, 94, 92, 91, 90, 89, 88, 81, 78, 76], [98, 96, 95, 92, 90, 89, 81, 78, 72], [100, 98, 95, 94, 93, 92, 91, 90, 87, 85, 82, 81], [101, 100, 99, 98, 93, 92, 91, 90, 86, 85, 75], [96, 92, 81, 70, 69], [98, 95, 93, 91, 88, 85, 83, 81, 79], [101, 100, 99, 97, 96, 94, 93, 91, 90, 88, 87], [101, 100, 99, 91, 89, 81, 78], [92, 91, 88, 85, 81, 79], [92, 91, 89, 81, 78], [90, 88, 70], [96, 92, 90, 89, 88, 87], [98, 91, 86, 78], [97, 95, 90, 88], [94, 87, 86, 85], [92, 88, 86, 85], [94, 93, 91, 87], [97, 95, 87, 85], [95, 92, 81], [96, 89, 88], [93, 86, 85], [88, 82], [87, 85], [90, 89], [88, 87], [86], [89], [86], [85], [102], [102], [102], [102], [102], [102], [102], [102], [102], [102], [102], [102], [102], [102], [102], [102], [102], []]
letting durations = [[0], [8, 8, 10], [1, 3, 5], [1, 5, 5], [2, 7, 9], [3, 6, 7], [3, 4, 8], [2, 3, 7], [5, 7, 10], [5, 8, 9], [1, 4, 5], [1, 2, 9], [2, 4, 6], [3, 4, 6], [1, 4, 8], [2, 7, 8], [3, 5, 6], [3, 5, 10], [6, 9, 10], [9, 9, 10], [6, 8, 10], [5, 7, 9], [1, 5, 9], [2, 7, 8], [2, 3, 9], [5, 5, 9], [2, 5, 7], [1, 2, 8], [4, 5, 9], [2, 7, 9], [3, 6, 9], [4, 6, 8], [6, 9, 10], [7, 8, 10], [3, 3, 8], [3, 6, 6], [5, 6, 8], [3, 5, 6], [2, 6, 9], [2, 5, 10], [1, 7, 9], [5, 9, 10], [2, 10, 10], [5, 8, 10], [2, 5, 10], [4, 7, 7], [3, 8, 9], [2, 3, 3], [2, 5, 10], [1, 2, 6], [6, 7, 9], [7, 9, 10], [4, 5, 6], [1, 4, 8], [1, 6, 8], [6, 9, 9], [1, 2, 8], [4, 9, 10], [2, 4, 6], [2, 8, 9], [4, 8, 8], [4, 6, 10], [1, 2, 4], [4, 4, 10], [6, 8, 9], [2, 6, 7], [1, 3, 7], [1, 5, 5], [2, 3, 9], [3, 4, 5], [2, 4, 5], [2, 6, 10], [1, 2, 8], [5, 8, 9], [2, 5, 7], [4, 6, 6], [2, 4, 10], [2, 4, 7], [3, 4, 10], [2, 4, 6], [1, 6, 7], [4, 5, 10], [3, 7, 9], [1, 1, 8], [3, 9, 10], [6, 7, 9], [5, 5, 8], [7, 7, 8], [1, 6, 7], [4, 5, 6], [4, 4, 9], [1, 7, 10], [1, 6, 7], [2, 3, 7], [2, 3, 4], [1, 3, 4], [4, 7, 9], [1, 6, 9], [4, 5, 8], [3, 7, 8], [6, 8, 9], [0]]
letting resourceUsage = [[[0, 0, 0, 0]], [[4, 5, 0, 5], [3, 3, 1, 0], [2, 2, 0, 5]], [[4, 3, 0, 6], [4, 2, 6, 0], [4, 2, 4, 0]], [[4, 4, 7, 0], [4, 4, 5, 0], [4, 4, 0, 5]], [[5, 5, 0, 3], [4, 5, 2, 0], [3, 5, 2, 0]], [[3, 1, 0, 2], [2, 1, 8, 0], [2, 1, 0, 2]], [[4, 2, 0, 7], [3, 2, 0, 6], [1, 2, 3, 0]], [[4, 3, 0, 9], [3, 2, 0, 9], [3, 2, 0, 7]], [[5, 2, 5, 0], [4, 1, 3, 0], [3, 1, 1, 0]], [[3, 4, 9, 0], [3, 2, 8, 0], [1, 2, 6, 0]], [[4, 2, 0, 2], [4, 2, 0, 1], [2, 2, 0, 1]], [[4, 4, 0, 7], [4, 2, 5, 0], [3, 2, 4, 0]], [[2, 4, 0, 5], [2, 3, 0, 4], [2, 3, 4, 0]], [[5, 3, 0, 7], [3, 3, 0, 7], [3, 2, 5, 0]], [[3, 3, 6, 0], [1, 2, 0, 6], [1, 1, 4, 0]], [[1, 3, 7, 0], [1, 2, 6, 0], [1, 2, 0, 2]], [[5, 2, 0, 5], [5, 1, 6, 0], [5, 1, 5, 0]], [[4, 4, 5, 0], [4, 3, 4, 0], [4, 2, 0, 6]], [[3, 4, 5, 0], [2, 4, 0, 4], [2, 4, 0, 3]], [[2, 4, 8, 0], [1, 4, 0, 2], [1, 4, 0, 1]], [[4, 3, 4, 0], [4, 1, 0, 4], [4, 1, 3, 0]], [[3, 3, 0, 7], [3, 3, 0, 6], [3, 3, 2, 0]], [[5, 3, 0, 3], [5, 1, 0, 2], [5, 1, 6, 0]], [[5, 4, 8, 0], [4, 4, 0, 6], [4, 4, 0, 3]], [[4, 5, 6, 0], [3, 3, 0, 3], [3, 1, 1, 0]], [[1, 4, 1, 0], [1, 3, 0, 5], [1, 2, 1, 0]], [[2, 4, 1, 0], [2, 3, 0, 2], [2, 3, 1, 0]], [[5, 1, 6, 0], [4, 1, 0, 9], [4, 1, 1, 0]], [[5, 4, 4, 0], [3, 3, 4, 0], [2, 3, 0, 2]], [[2, 3, 0, 6], [2, 3, 3, 0], [2, 3, 0, 3]], [[3, 5, 9, 0], [3, 3, 8, 0], [1, 3, 0, 2]], [[4, 4, 6, 0], [4, 2, 0, 4], [4, 2, 6, 0]], [[4, 4, 0, 8], [3, 3, 0, 7], [3, 3, 2, 0]], [[2, 3, 8, 0], [1, 3, 5, 0], [1, 3, 0, 9]], [[4, 5, 7, 0], [3, 3, 0, 3], [2, 2, 0, 1]], [[3, 3, 8, 0], [3, 2, 0, 8], [3, 1, 7, 0]], [[3, 5, 0, 4], [2, 4, 0, 3], [2, 3, 6, 0]], [[2, 4, 4, 0], [2, 4, 0, 5], [2, 4, 3, 0]], [[1, 4, 10, 0], [1, 2, 0, 6], [1, 2, 0, 5]], [[2, 4, 6, 0], [1, 4, 0, 3], [1, 2, 0, 2]], [[5, 4, 0, 8], [3, 4, 0, 7], [3, 3, 0, 6]], [[3, 3, 6, 0], [3, 1, 0, 4], [3, 1, 0, 3]], [[4, 2, 10, 0], [2, 1, 9, 0], [2, 1, 0, 4]], [[3, 1, 7, 0], [3, 1, 6, 0], [2, 1, 7, 0]], [[3, 5, 0, 6], [3, 4, 0, 6], [2, 3, 9, 0]], [[3, 4, 0, 6], [3, 2, 7, 0], [3, 2, 0, 5]], [[5, 1, 6, 0], [2, 1, 0, 7], [2, 1, 4, 0]], [[4, 5, 0, 8], [2, 2, 6, 0], [2, 1, 0, 5]], [[4, 2, 5, 0], [4, 2, 4, 0], [4, 2, 0, 2]], [[3, 4, 4, 0], [3, 2, 3, 0], [2, 2, 3, 0]], [[3, 5, 9, 0], [2, 4, 5, 0], [1, 3, 4, 0]], [[2, 1, 0, 9], [1, 1, 7, 0], [1, 1, 0, 5]], [[1, 1, 8, 0], [1, 1, 7, 0], [1, 1, 6, 0]], [[3, 3, 0, 6], [3, 2, 0, 4], [1, 2, 4, 0]], [[4, 5, 6, 0], [3, 5, 5, 0], [2, 5, 5, 0]], [[2, 5, 0, 4], [2, 4, 0, 4], [2, 4, 2, 0]], [[2, 4, 7, 0], [2, 2, 6, 0], [2, 2, 0, 4]], [[4, 5, 6, 0], [2, 4, 0, 5], [2, 3, 3, 0]], [[2, 3, 8, 0], [1, 3, 0, 3], [1, 3, 0, 2]], [[4, 5, 0, 5], [4, 3, 0, 4], [4, 3, 0, 3]], [[5, 4, 0, 8], [3, 4, 0, 6], [3, 4, 3, 0]], [[4, 5, 8, 0], [2, 3, 0, 6], [2, 3, 0, 3]], [[3, 4, 5, 0], [3, 3, 5, 0], [2, 3, 0, 3]], [[5, 5, 3, 0], [3, 2, 0, 6], [3, 1, 0, 6]], [[4, 5, 0, 6], [4, 5, 3, 0], [2, 5, 0, 3]], [[4, 4, 7, 0], [4, 4, 6, 0], [3, 3, 6, 0]], [[5, 5, 0, 6], [5, 3, 6, 0], [5, 3, 0, 3]], [[4, 4, 6, 0], [4, 4, 3, 0], [4, 4, 0, 3]], [[3, 3, 8, 0], [2, 3, 7, 0], [2, 3, 0, 3]], [[3, 3, 3, 0], [3, 3, 2, 0], [3, 3, 1, 0]], [[5, 4, 0, 2], [4, 4, 0, 2], [4, 3, 0, 2]], [[4, 2, 5, 0], [3, 1, 5, 0], [3, 1, 0, 6]], [[2, 2, 8, 0], [2, 1, 4, 0], [1, 1, 0, 3]], [[2, 3, 0, 5], [2, 3, 0, 3], [2, 2, 0, 3]], [[5, 3, 0, 9], [5, 2, 0, 9], [5, 1, 0, 9]], [[4, 3, 2, 0], [4, 3, 1, 0], [4, 3, 0, 3]], [[4, 1, 0, 5], [2, 1, 9, 0], [2, 1, 0, 1]], [[2, 4, 0, 5], [2, 3, 0, 4], [2, 1, 0, 3]], [[4, 3, 2, 0], [4, 3, 1, 0], [3, 3, 1, 0]], [[2, 5, 10, 0], [2, 2, 7, 0], [2, 2, 0, 3]], [[5, 4, 0, 5], [4, 4, 8, 0], [3, 4, 4, 0]], [[2, 5, 0, 7], [1, 3, 0, 5], [1, 2, 4, 0]], [[3, 4, 10, 0], [2, 3, 0, 6], [2, 3, 0, 5]], [[1, 5, 0, 7], [1, 3, 6, 0], [1, 2, 0, 5]], [[4, 2, 0, 9], [4, 2, 7, 0], [3, 1, 0, 6]], [[4, 2, 0, 6], [3, 1, 0, 5], [2, 1, 0, 3]], [[4, 5, 9, 0], [3, 4, 0, 2], [2, 3, 9, 0]], [[4, 2, 9, 0], [2, 2, 0, 4], [2, 2, 0, 3]], [[4, 2, 0, 10], [3, 1, 3, 0], [2, 1, 0, 5]], [[4, 5, 0, 8], [4, 5, 6, 0], [4, 5, 4, 0]], [[5, 4, 0, 9], [4, 4, 3, 0], [4, 2, 0, 8]], [[3, 5, 0, 10], [3, 5, 7, 0], [1, 5, 0, 9]], [[4, 3, 0, 10], [3, 3, 1, 0], [3, 2, 1, 0]], [[5, 4, 7, 0], [4, 2, 6, 0], [4, 2, 4, 0]], [[2, 4, 7, 0], [1, 3, 5, 0], [1, 3, 0, 1]], [[4, 5, 6, 0], [3, 5, 0, 6], [2, 5, 2, 0]], [[5, 4, 0, 7], [3, 4, 0, 7], [3, 4, 4, 0]], [[2, 4, 10, 0], [1, 4, 9, 0], [1, 2, 0, 5]], [[4, 2, 9, 0], [4, 1, 9, 0], [4, 1, 8, 0]], [[4, 5, 3, 0], [4, 3, 0, 6], [4, 2, 2, 0]], [[2, 3, 5, 0], [2, 2, 0, 7], [1, 1, 4, 0]], [[0, 0, 0, 0]]]
